% seed = 0

mint = 46;
% maxt = 259;

nActs = 92;
dur = [0,2,3,2,3,1,2,5,3,3,2,6,3,1,3,3,5,1,5,4,4,3,3,2,3,2,1,3,2,2,4,3,2,6,3,3,3,5,4,2,1,3,3,3,2,1,3,3,1,1,2,1,3,3,2,2,2,3,3,2,1,2,4,3,7,4,4,2,4,4,3,3,5,1,4,4,5,2,2,1,3,2,3,3,5,1,5,3,2,3,3,0];

nSkills = 10;
sreq = [| 0,0,0,0,0,0,0,0,0,0,
	| 0,1,0,1,0,0,1,0,0,0,
	| 0,0,0,2,0,0,0,1,0,0,
	| 0,1,0,0,0,0,0,1,0,1,
	| 0,2,0,1,1,0,0,0,0,0,
	| 0,1,0,1,0,1,0,0,0,0,
	| 0,0,0,0,0,0,0,0,0,1,
	| 1,1,0,0,0,1,0,0,1,1,
	| 0,0,0,1,0,0,0,0,0,1,
	| 0,0,0,1,0,1,0,0,0,0,
	| 0,1,0,1,0,0,1,0,0,0,
	| 0,1,1,0,1,1,0,0,0,1,
	| 0,1,0,0,0,0,0,0,1,0,
	| 0,2,0,1,0,0,1,0,0,1,
	| 0,1,0,1,0,0,0,0,0,0,
	| 0,0,2,0,0,0,0,0,0,1,
	| 0,0,1,0,0,0,0,0,0,0,
	| 1,0,1,1,0,0,0,0,0,0,
	| 0,0,0,0,0,0,1,0,0,1,
	| 0,1,0,0,0,0,0,0,0,0,
	| 0,0,1,0,0,1,0,1,0,0,
	| 0,0,0,0,0,2,0,0,0,0,
	| 0,0,0,2,0,0,0,1,0,0,
	| 0,0,1,0,0,1,0,1,1,0,
	| 0,0,0,2,0,0,0,0,0,0,
	| 0,0,0,0,0,1,0,0,0,1,
	| 0,0,0,0,0,0,1,0,0,0,
	| 0,0,0,0,0,1,0,1,0,1,
	| 0,1,0,0,0,0,0,0,0,1,
	| 0,0,0,1,0,1,0,1,1,0,
	| 0,0,0,0,0,2,0,1,0,0,
	| 1,0,1,0,0,0,0,0,0,1,
	| 1,1,0,1,0,0,0,1,0,1,
	| 1,0,0,2,0,0,0,0,0,0,
	| 0,0,0,0,0,0,0,1,0,0,
	| 0,1,1,0,0,0,0,1,0,0,
	| 0,0,0,1,0,1,0,0,0,0,
	| 0,2,0,0,0,1,0,0,0,0,
	| 0,0,1,1,0,0,0,0,0,2,
	| 0,0,0,1,0,0,0,1,0,1,
	| 0,1,1,0,0,0,0,0,0,1,
	| 0,1,0,0,0,1,0,1,0,2,
	| 1,0,0,0,0,0,0,0,0,1,
	| 0,1,0,0,0,0,0,1,0,0,
	| 0,0,1,1,1,1,0,0,0,0,
	| 0,0,0,0,1,0,0,0,0,0,
	| 0,1,0,0,0,0,1,0,0,1,
	| 1,0,0,0,0,0,1,0,0,0,
	| 0,0,2,1,0,1,0,0,0,0,
	| 0,0,0,1,1,0,0,0,0,0,
	| 0,1,2,1,0,0,1,0,0,0,
	| 0,0,0,0,0,0,0,1,0,0,
	| 0,0,0,1,1,1,0,0,0,1,
	| 0,0,0,0,0,0,0,0,1,0,
	| 0,0,1,0,0,0,0,1,0,0,
	| 0,0,0,0,0,0,0,1,0,1,
	| 0,1,0,0,1,1,0,0,0,0,
	| 1,0,0,0,1,0,0,0,0,0,
	| 0,0,0,1,0,1,0,0,0,1,
	| 0,1,0,0,0,1,0,1,0,0,
	| 0,0,0,0,0,1,0,0,0,1,
	| 0,1,0,1,0,0,0,0,0,1,
	| 0,1,1,1,0,0,0,0,0,0,
	| 0,0,1,0,0,0,0,1,0,0,
	| 0,0,0,0,0,1,0,0,0,1,
	| 0,2,0,0,0,0,0,0,0,0,
	| 0,2,0,1,0,1,0,0,0,1,
	| 0,0,0,0,1,0,0,0,0,0,
	| 0,1,0,0,0,0,0,1,0,1,
	| 0,0,2,0,0,0,0,0,0,0,
	| 0,0,0,0,1,0,0,0,0,1,
	| 0,0,0,1,0,1,0,1,0,0,
	| 0,0,0,0,0,0,0,1,0,1,
	| 0,0,1,0,0,0,1,0,0,0,
	| 0,0,0,1,0,1,0,0,0,1,
	| 0,0,0,1,0,0,0,0,0,0,
	| 0,1,0,0,0,0,0,0,0,0,
	| 0,0,0,0,0,0,0,1,0,1,
	| 1,0,1,0,0,1,1,0,0,0,
	| 0,0,0,0,1,0,0,0,0,0,
	| 0,0,0,0,0,0,0,0,0,2,
	| 0,0,0,2,0,0,1,0,0,0,
	| 0,0,0,0,0,2,0,0,0,2,
	| 0,1,0,2,0,0,0,1,0,0,
	| 1,0,0,1,0,0,1,0,1,1,
	| 0,0,0,1,1,2,0,0,0,0,
	| 0,1,1,0,2,0,1,0,0,0,
	| 0,1,0,0,0,1,0,0,0,0,
	| 0,0,0,1,0,0,0,0,0,0,
	| 0,2,0,0,0,0,0,0,0,0,
	| 0,1,0,0,0,0,0,0,1,0,
	| 0,0,0,0,0,0,0,0,0,0, |];

% SumOfsreq = 243;

nResources = 6;
mastery = [| true,true,true,true,true,true,false,true,false,false,
	| false,true,true,true,true,true,false,true,true,false,
	| true,true,true,false,true,true,false,true,false,true,
	| false,false,false,false,false,true,true,true,false,false,
	| false,false,true,true,false,false,false,false,false,true,
	| false,true,false,true,false,false,false,false,false,true, |];

nPrecs = 138;
pred = [1,1,1,2,2,2,3,3,4,4,4,5,5,5,6,6,6,7,7,7,8,8,9,9,10,11,11,11,12,13,13,13,14,15,15,15,16,16,17,18,19,19,20,20,21,22,22,22,23,23,23,24,24,25,26,27,27,27,28,28,28,29,29,29,30,30,31,32,33,34,35,36,36,36,37,38,39,40,41,42,43,44,45,46,47,48,49,49,49,50,50,51,52,53,54,55,56,57,58,59,60,61,62,63,64,65,65,66,67,68,69,70,71,72,73,73,74,75,76,76,77,77,77,78,78,79,80,81,82,83,84,85,86,87,88,89,90,91];
succ = [2,3,4,5,6,24,77,14,33,13,7,39,22,15,25,37,13,9,10,8,21,16,11,12,51,17,18,19,65,20,30,31,57,34,27,28,75,38,74,38,50,23,26,64,48,41,42,60,76,55,40,90,70,65,27,76,59,36,35,29,32,49,69,45,86,47,56,46,60,44,40,74,83,62,91,58,66,43,84,74,79,54,80,53,73,91,52,78,63,58,61,78,67,82,63,58,70,82,85,75,78,67,71,71,68,69,72,87,76,79,91,72,77,89,89,88,81,83,82,79,81,84,85,81,85,84,87,86,90,86,87,88,89,88,90,92,92,92];

nUnrels = 3105;
unpred = [2,2,2,2,2,2,2,2,2,2,2,2,2,2,2,2,2,2,2,2,2,2,2,2,3,3,3,3,3,3,3,3,3,3,3,3,3,3,3,3,3,3,3,3,3,3,3,3,3,3,3,3,3,3,3,3,3,3,3,3,3,3,3,3,3,3,3,3,3,3,3,3,3,3,3,3,3,3,3,3,3,3,3,3,3,3,3,3,3,3,3,3,3,3,3,3,3,3,3,3,4,4,4,4,4,4,4,4,4,4,4,4,4,4,4,4,4,4,4,4,4,4,4,4,4,4,4,5,5,5,5,5,5,5,5,5,5,5,5,5,5,5,5,5,5,5,5,5,5,5,5,5,5,5,5,5,5,5,5,5,5,5,5,5,5,5,6,6,6,6,6,6,6,6,6,6,6,6,6,6,6,6,6,6,6,6,6,6,6,6,6,6,6,6,6,6,6,6,6,6,6,6,6,6,6,6,6,6,6,6,6,6,6,6,7,7,7,7,7,7,7,7,7,7,7,7,7,7,7,7,7,7,7,7,7,7,7,7,7,7,7,7,7,7,7,7,7,7,7,7,7,7,7,7,7,7,7,7,8,8,8,8,8,8,8,8,8,8,8,8,8,8,8,8,8,8,8,8,8,8,8,8,8,8,8,8,8,8,8,8,8,8,8,8,8,8,8,8,8,8,8,8,8,8,8,8,8,8,8,8,8,8,8,8,8,8,8,8,8,8,8,8,8,8,8,8,8,8,9,9,9,9,9,9,9,9,9,9,9,9,9,9,9,9,9,9,9,9,9,9,9,9,9,9,9,9,9,9,9,9,9,9,9,9,9,9,9,9,9,9,9,9,9,9,9,9,9,9,9,9,10,10,10,10,10,10,10,10,10,10,10,10,10,10,10,10,10,10,10,10,10,10,10,10,10,10,10,10,10,10,10,10,10,10,10,10,10,10,10,10,10,10,10,10,10,10,10,10,10,10,10,10,10,10,10,10,10,10,10,10,10,10,10,10,10,10,10,10,10,10,10,10,10,11,11,11,11,11,11,11,11,11,11,11,11,11,11,11,11,11,11,11,11,11,11,11,11,11,11,11,11,11,11,11,11,11,11,11,11,11,11,11,11,11,11,11,11,11,11,11,11,11,11,11,11,11,11,11,11,12,12,12,12,12,12,12,12,12,12,12,12,12,12,12,12,12,12,12,12,12,12,12,12,12,12,12,12,12,12,12,12,12,12,12,12,12,12,12,12,12,12,12,12,12,12,12,12,12,12,12,12,12,12,12,12,12,12,12,12,12,12,12,12,12,12,12,12,12,12,12,12,12,12,13,13,13,13,13,13,13,13,13,13,13,13,13,13,13,13,13,13,13,13,13,13,13,13,13,13,13,13,13,13,13,13,13,13,13,13,13,13,13,13,13,13,13,13,13,13,13,14,14,14,14,14,14,14,14,14,14,14,14,14,14,14,14,14,14,14,14,14,14,14,14,14,14,14,14,14,14,14,14,14,14,14,14,14,14,14,14,14,14,14,14,14,14,14,14,14,14,14,14,14,14,14,14,14,14,14,14,14,14,14,14,14,14,14,14,14,14,14,14,14,14,15,15,15,15,15,15,15,15,15,15,15,15,15,15,15,15,15,15,15,15,15,15,15,15,15,15,15,15,15,15,15,15,15,15,15,15,16,16,16,16,16,16,16,16,16,16,16,16,16,16,16,16,16,16,16,16,16,16,16,16,16,16,16,16,16,16,16,16,16,16,16,16,16,16,16,16,16,16,16,16,16,16,16,16,16,16,16,16,16,16,16,16,16,16,16,16,16,16,16,16,16,16,17,17,17,17,17,17,17,17,17,17,17,17,17,17,17,17,17,17,17,17,17,17,17,17,17,17,17,17,17,17,17,17,17,17,17,17,17,17,17,17,17,17,17,17,17,17,17,17,17,17,17,17,17,17,17,17,17,17,17,17,17,17,17,17,17,17,17,17,17,17,18,18,18,18,18,18,18,18,18,18,18,18,18,18,18,18,18,18,18,18,18,18,18,18,18,18,18,18,18,18,18,18,18,18,18,18,18,18,18,18,18,18,18,18,18,18,18,18,18,18,18,18,18,18,18,18,18,18,18,18,18,18,18,18,18,18,18,18,19,19,19,19,19,19,19,19,19,19,19,19,19,19,19,19,19,19,19,19,19,19,19,19,19,19,19,19,19,19,19,19,19,19,19,19,19,19,19,19,19,19,19,19,19,19,19,19,19,19,19,19,19,19,19,19,20,20,20,20,20,20,20,20,20,20,20,20,20,20,20,20,20,20,20,20,20,20,20,20,20,20,20,20,20,20,20,20,20,20,20,20,20,20,20,20,20,20,20,20,20,20,20,20,21,21,21,21,21,21,21,21,21,21,21,21,21,21,21,21,21,21,21,21,21,21,21,21,21,21,21,21,21,21,21,21,21,21,21,21,21,21,21,21,21,21,21,21,21,21,21,21,21,21,21,21,21,21,21,21,21,21,21,21,21,21,21,21,21,21,21,21,22,22,22,22,22,22,22,22,22,22,22,22,22,22,22,22,22,22,22,22,22,22,22,22,22,22,22,22,22,22,22,22,22,22,22,22,22,22,22,22,22,22,22,22,22,22,22,22,22,22,22,22,22,22,22,22,23,23,23,23,23,23,23,23,23,23,23,23,23,23,23,23,23,23,23,23,23,23,23,23,23,23,23,23,23,23,23,23,23,23,23,23,23,23,23,23,23,23,23,23,23,23,23,23,23,23,23,23,23,23,23,23,24,24,24,24,24,24,24,24,24,24,24,24,24,24,24,24,24,24,24,24,24,24,24,24,24,24,24,24,24,24,24,24,24,24,24,24,24,24,24,24,24,24,24,24,24,24,24,24,24,24,24,24,24,24,24,24,24,24,24,24,24,24,24,25,25,25,25,25,25,25,25,25,25,25,25,25,25,25,25,25,25,25,25,25,25,25,25,25,25,25,25,25,25,25,25,25,25,25,25,25,25,25,25,25,25,25,25,25,25,25,25,25,25,25,25,25,25,25,25,25,25,25,25,25,26,26,26,26,26,26,26,26,26,26,26,26,26,26,26,26,26,26,26,26,26,26,26,26,26,26,26,26,26,26,26,26,26,26,26,26,26,26,26,26,26,26,26,26,26,27,27,27,27,27,27,27,27,27,27,27,27,27,27,27,27,27,27,27,27,27,27,27,27,27,27,27,27,27,27,27,27,27,27,27,27,27,27,27,27,27,27,27,27,27,28,28,28,28,28,28,28,28,28,28,28,28,28,28,28,28,28,28,28,28,28,28,28,28,28,28,28,28,28,28,28,28,28,28,29,29,29,29,29,29,29,29,29,29,29,29,29,29,29,29,29,29,29,29,29,29,29,29,29,29,29,29,29,29,29,29,29,29,29,29,29,29,29,29,30,30,30,30,30,30,30,30,30,30,30,30,30,30,30,30,30,30,30,30,30,30,30,30,30,30,30,30,30,30,30,30,30,30,30,30,30,30,30,30,30,30,30,30,30,30,30,30,30,30,30,30,30,30,30,31,31,31,31,31,31,31,31,31,31,31,31,31,31,31,31,31,31,31,31,31,31,31,31,31,31,31,31,31,31,31,31,31,31,31,31,31,31,31,31,31,31,31,31,31,31,31,31,31,31,31,31,31,31,31,31,32,32,32,32,32,32,32,32,32,32,32,32,32,32,32,32,32,32,32,32,32,32,32,32,32,32,32,32,32,32,32,32,32,32,32,32,32,32,32,32,32,32,32,32,32,32,32,32,32,32,32,32,32,32,32,33,33,33,33,33,33,33,33,33,33,33,33,33,33,33,33,33,33,33,33,33,33,33,33,33,33,33,33,33,33,33,33,33,33,33,33,33,33,33,33,33,33,33,33,33,33,33,33,33,33,34,34,34,34,34,34,34,34,34,34,34,34,34,34,34,34,34,34,34,34,34,34,34,34,34,34,34,34,34,34,34,34,34,34,34,34,34,34,34,34,34,34,34,34,35,35,35,35,35,35,35,35,35,35,35,35,35,35,35,35,35,35,35,35,35,35,35,35,35,35,35,35,35,35,35,35,35,35,35,35,35,35,35,35,35,35,35,35,35,35,35,35,35,36,36,36,36,36,36,36,36,36,36,36,36,36,36,36,36,36,36,36,36,36,36,36,36,36,36,36,36,36,36,36,36,36,36,36,36,36,36,36,36,36,36,37,37,37,37,37,37,37,37,37,37,37,37,37,37,37,37,37,37,37,37,37,37,37,37,37,37,37,37,37,37,37,37,37,37,37,37,37,37,37,37,37,37,37,37,37,37,37,37,37,37,37,37,37,38,38,38,38,38,38,38,38,38,38,38,38,38,38,38,38,38,38,38,38,38,38,38,38,38,38,38,38,38,38,38,38,38,38,38,38,38,38,38,38,38,38,38,38,38,38,38,38,38,39,39,39,39,39,39,39,39,39,39,39,39,39,39,39,39,39,39,39,39,39,39,39,39,39,39,39,39,39,39,39,39,39,39,39,39,39,39,39,39,39,39,39,39,39,39,39,39,40,40,40,40,40,40,40,40,40,40,40,40,40,40,40,40,40,40,40,40,40,40,40,40,40,40,40,40,40,40,40,40,40,40,40,40,40,40,40,40,40,40,40,40,40,41,41,41,41,41,41,41,41,41,41,41,41,41,41,41,41,41,41,41,41,41,41,41,41,41,41,41,41,41,41,41,41,41,41,41,41,41,41,41,41,41,41,41,41,41,41,42,42,42,42,42,42,42,42,42,42,42,42,42,42,42,42,42,42,42,42,42,42,42,42,42,42,42,42,42,42,42,42,42,42,42,42,42,42,42,42,42,42,42,42,42,43,43,43,43,43,43,43,43,43,43,43,43,43,43,43,43,43,43,43,43,43,43,43,43,43,43,43,43,43,43,43,43,43,43,43,43,43,43,43,43,43,43,43,44,44,44,44,44,44,44,44,44,44,44,44,44,44,44,44,44,44,44,44,44,44,44,44,44,44,44,44,44,44,44,44,44,44,44,45,45,45,45,45,45,45,45,45,45,45,45,45,45,45,45,45,45,45,45,45,45,45,45,45,45,45,45,45,45,45,45,45,45,45,45,45,45,45,45,45,45,46,46,46,46,46,46,46,46,46,46,46,46,46,46,46,46,46,46,46,46,46,46,46,46,46,46,46,46,46,46,46,46,46,46,46,46,46,46,46,46,46,46,47,47,47,47,47,47,47,47,47,47,47,47,47,47,47,47,47,47,47,47,47,47,47,47,47,47,47,47,47,47,47,47,47,47,47,47,47,47,47,47,48,48,48,48,48,48,48,48,48,48,48,48,48,48,48,48,48,48,48,48,48,48,48,48,48,48,48,48,48,48,48,48,48,48,48,48,48,48,48,48,48,48,49,49,49,49,49,49,49,49,49,49,49,49,49,49,49,49,49,49,49,49,49,49,49,49,49,50,50,50,50,50,50,50,50,50,50,50,50,50,50,50,50,50,50,50,50,50,50,50,50,50,50,50,50,50,50,51,51,51,51,51,51,51,51,51,51,51,51,51,51,51,51,51,51,51,51,51,51,51,51,51,51,51,51,51,51,51,51,51,52,52,52,52,52,52,52,52,52,52,52,52,52,52,52,52,52,52,52,52,52,52,52,52,52,52,52,52,52,52,52,53,53,53,53,53,53,53,53,53,53,53,53,53,53,53,53,53,53,53,53,53,53,53,53,53,53,53,53,53,53,53,53,53,53,53,53,54,54,54,54,54,54,54,54,54,54,54,54,54,54,54,54,54,54,54,54,54,54,54,54,54,54,55,55,55,55,55,55,55,55,55,55,55,55,55,55,55,55,55,55,55,55,55,55,55,55,55,55,55,55,55,55,55,55,56,56,56,56,56,56,56,56,56,56,56,56,56,56,56,56,56,56,56,56,56,56,56,56,56,56,56,56,56,56,56,56,57,57,57,57,57,57,57,57,57,57,57,57,57,57,57,57,57,57,57,57,57,57,57,57,57,57,57,57,57,57,57,57,58,58,58,58,58,58,58,58,58,58,58,58,58,58,58,58,58,58,58,58,58,58,58,58,58,58,58,58,58,58,59,59,59,59,59,59,59,59,59,59,59,59,59,59,59,59,59,59,59,59,59,59,59,59,59,59,59,59,60,60,60,60,60,60,60,60,60,60,60,60,60,60,60,60,60,60,60,60,60,60,60,60,61,61,61,61,61,61,61,61,61,61,61,61,61,61,61,61,61,61,61,61,61,61,62,62,62,62,62,62,62,62,62,62,62,62,62,62,62,62,62,62,62,63,63,63,63,63,63,63,63,63,63,63,63,63,63,63,63,63,63,64,64,64,64,64,64,64,64,64,64,64,64,64,64,64,64,64,64,64,64,64,65,65,65,65,65,65,65,65,65,65,65,65,65,65,65,65,65,65,65,65,65,65,66,66,66,66,66,66,66,66,66,66,66,66,66,66,66,66,66,66,66,66,66,66,67,67,67,67,67,67,67,67,67,67,67,67,67,67,67,67,67,68,68,68,68,68,68,68,68,68,68,68,68,68,68,68,68,68,68,69,69,69,69,69,69,69,69,69,69,69,69,69,69,69,69,69,69,69,69,69,70,70,70,70,70,70,70,70,70,70,70,70,70,70,70,70,70,70,70,71,71,71,71,71,71,71,71,71,71,71,72,72,72,72,72,72,72,72,72,72,72,72,72,72,72,72,72,72,73,73,73,73,73,73,73,73,73,73,73,73,73,73,73,74,74,74,74,74,74,74,74,74,74,74,74,74,74,75,75,75,75,75,75,75,75,75,75,75,75,75,76,76,76,76,76,76,76,76,76,77,77,77,77,77,77,78,78,78,78,78,78,78,79,79,79,79,79,79,79,79,80,80,80,80,80,80,80,80,81,81,81,81,81,81,81,81,82,82,82,82,82,82,82,82,83,83,83,83,83,83,84,84,84,84,85,85,85,85,86,86,86,86,87,87,88,88,89,89,90];
unsucc = [3,4,7,8,9,10,11,12,14,16,17,18,19,21,23,33,38,48,50,51,55,57,58,61,4,5,6,7,8,9,10,11,12,13,15,16,17,18,19,20,21,22,23,24,25,26,27,28,29,30,31,32,33,34,35,36,37,38,39,40,41,42,43,44,45,46,47,48,49,50,51,52,53,54,55,56,58,59,60,61,62,63,64,65,66,67,68,69,70,71,72,73,74,75,76,78,79,80,83,91,5,6,14,15,22,24,25,28,29,32,34,35,37,39,41,42,44,45,46,49,52,53,54,57,63,66,80,6,7,8,9,10,11,12,13,14,16,17,18,19,20,21,23,24,25,26,30,31,33,37,38,47,48,50,51,55,56,57,58,61,64,65,68,70,72,73,7,8,9,10,11,12,14,15,16,17,18,19,21,22,23,24,28,29,32,33,34,35,38,39,40,41,42,43,44,45,46,48,49,50,51,52,53,54,55,57,58,60,61,63,66,67,78,80,13,14,15,20,22,24,25,26,27,28,29,30,31,32,33,34,35,36,37,39,41,42,44,45,46,47,49,52,53,54,56,57,59,60,62,63,64,66,68,70,71,73,77,80,9,10,11,12,13,14,15,17,18,19,20,22,23,24,25,26,27,28,29,30,31,32,33,34,35,36,37,39,40,41,42,43,44,45,46,47,49,50,51,52,53,54,55,56,57,59,60,61,62,63,64,65,66,67,68,69,70,71,72,73,74,76,77,78,79,80,81,82,84,87,10,13,14,15,16,20,21,22,24,25,26,27,28,29,30,31,32,33,34,35,36,37,39,41,42,44,45,46,47,48,49,51,52,53,54,56,57,59,60,62,63,64,66,68,70,71,73,75,77,78,80,83,11,12,13,14,15,16,17,18,19,20,21,22,23,24,25,26,27,28,29,30,31,32,33,34,35,36,37,38,39,40,41,42,43,44,45,46,47,48,49,50,52,53,54,55,56,57,58,59,60,61,62,63,64,65,66,67,68,69,70,71,72,73,74,75,76,77,79,80,82,83,84,87,91,12,13,14,15,16,20,21,22,24,25,26,27,28,29,30,31,32,33,34,35,36,37,39,41,42,44,45,46,47,48,49,51,52,53,54,56,57,59,60,62,63,64,65,66,68,69,70,71,72,73,75,77,78,80,83,91,13,14,15,16,17,18,19,20,21,22,23,24,25,26,27,28,29,30,31,32,33,34,35,36,37,38,39,40,41,42,43,44,45,46,47,48,49,50,51,52,53,54,55,56,57,58,59,60,61,62,63,64,66,67,68,70,71,73,74,75,76,77,78,79,80,81,82,83,84,85,86,87,88,90,14,15,16,17,18,19,21,22,23,24,25,28,29,32,33,34,35,37,38,39,40,41,42,43,44,45,46,48,49,50,51,52,53,54,55,57,58,60,61,63,65,66,67,69,78,80,91,15,16,17,18,19,20,21,22,23,24,25,26,27,28,29,30,31,32,33,34,35,36,37,38,39,40,41,42,43,44,45,46,47,48,49,50,51,52,53,54,55,56,58,59,60,61,62,63,64,65,66,67,68,69,70,71,72,73,74,75,76,77,78,79,80,81,83,84,85,86,87,88,89,91,16,17,18,19,20,21,22,23,24,25,26,30,31,33,37,38,39,41,42,47,48,50,51,55,56,57,58,60,61,64,65,66,68,70,72,73,17,18,19,20,21,22,23,24,25,26,27,28,29,30,31,32,33,34,35,36,37,39,40,41,42,43,44,45,46,47,48,49,50,51,52,53,54,55,56,57,59,60,61,62,63,64,65,66,67,68,69,70,71,72,73,74,76,77,78,79,80,81,82,84,87,91,18,19,20,21,22,23,24,25,26,27,28,29,30,31,32,33,34,35,36,37,38,39,40,41,42,43,44,45,46,47,48,49,50,51,52,53,54,55,56,57,58,59,60,61,62,63,64,65,66,67,68,69,70,71,72,73,75,76,77,78,79,80,82,83,84,85,87,88,90,91,19,20,21,22,23,24,25,26,27,28,29,30,31,32,33,34,35,36,37,39,40,41,42,43,44,45,46,47,48,49,50,51,52,53,54,55,56,57,59,60,61,62,63,64,65,66,67,68,69,70,71,72,73,74,75,76,77,78,79,80,81,82,83,84,86,87,89,91,20,21,22,24,25,26,27,28,29,30,31,32,33,34,35,36,37,38,39,41,42,44,45,46,47,48,49,51,52,53,54,56,57,59,60,62,63,64,65,66,68,69,70,71,72,73,74,75,77,78,80,81,83,86,89,91,21,22,23,24,25,28,29,30,31,32,33,34,35,37,38,39,40,41,42,43,44,45,46,47,48,49,50,51,52,53,54,55,56,57,58,60,61,63,65,66,67,69,70,72,73,78,80,91,22,23,24,25,26,27,28,29,30,31,32,33,34,35,36,37,38,39,40,41,42,43,44,45,46,47,49,50,51,52,53,54,55,56,57,58,59,60,61,62,63,64,65,66,67,68,69,70,71,72,73,74,75,76,77,78,79,80,81,82,83,84,85,86,87,88,89,90,23,24,25,26,27,28,29,30,31,32,33,34,35,36,37,38,39,40,43,44,45,46,47,48,49,50,51,52,53,54,55,56,57,58,59,61,62,63,64,65,66,67,68,69,70,71,72,73,75,76,77,79,80,82,83,91,24,25,26,27,28,29,30,31,32,33,34,35,36,37,38,39,41,42,44,45,46,47,48,49,50,51,52,53,54,56,57,59,60,61,62,63,64,65,66,67,68,69,70,71,72,73,74,75,77,78,80,81,83,86,89,91,25,26,27,28,29,30,31,32,33,34,35,36,37,38,39,40,41,42,43,44,45,46,47,48,49,50,51,52,53,54,55,56,57,58,59,60,61,62,63,64,65,66,67,68,69,71,73,74,75,76,77,78,79,80,81,82,83,84,85,86,87,88,91,26,27,28,29,30,31,32,33,34,35,36,37,38,39,40,41,42,43,44,45,46,47,48,49,50,51,52,53,54,55,56,57,58,59,60,61,62,63,64,66,67,68,70,71,73,74,75,76,77,78,79,80,81,82,83,84,85,86,87,88,90,28,29,30,31,32,33,34,35,37,38,39,40,41,42,43,44,45,46,47,48,49,50,51,52,53,54,55,56,57,58,60,61,63,64,65,66,67,68,69,70,72,73,78,80,91,28,29,30,31,32,33,34,35,37,38,39,40,41,42,43,44,45,46,47,48,49,50,51,52,53,54,55,56,57,58,60,61,63,64,65,66,67,68,69,70,72,73,78,80,91,30,31,33,34,36,37,38,39,41,42,44,47,48,50,51,54,55,56,57,58,59,60,61,62,64,65,66,68,70,72,73,74,75,83,30,31,32,33,34,35,36,37,38,39,40,41,42,43,44,46,47,48,50,51,53,54,55,56,57,58,59,60,61,62,64,65,66,68,70,72,73,74,75,83,31,32,33,34,35,36,37,38,39,40,41,42,43,44,45,46,48,49,50,51,52,53,54,55,56,57,58,59,60,61,62,63,64,65,66,67,68,69,70,71,72,74,75,76,77,78,79,80,81,82,83,84,85,87,91,32,33,34,35,36,37,38,39,40,41,42,43,44,45,46,47,48,49,50,51,52,53,54,55,57,58,59,60,61,62,63,64,65,66,67,68,69,71,73,74,75,76,77,78,79,80,81,82,83,84,85,86,87,88,90,91,33,34,35,36,37,38,39,40,41,42,43,44,45,47,48,49,50,51,52,54,55,56,57,58,59,60,61,62,63,64,65,66,67,68,69,70,71,72,73,74,75,76,77,78,79,80,81,83,84,85,86,87,88,89,91,34,35,36,37,38,39,40,41,42,43,44,45,46,47,48,49,50,51,52,53,54,55,56,57,58,59,61,62,63,64,65,66,67,68,69,70,71,72,73,74,75,76,77,79,80,82,83,84,87,91,35,36,37,38,39,40,41,42,43,45,46,47,48,49,50,51,52,53,55,56,57,58,59,60,61,62,64,65,66,67,68,69,70,72,73,74,75,76,78,79,80,82,83,91,36,37,38,39,41,42,44,45,46,47,48,49,50,51,52,53,54,55,56,57,58,59,60,61,62,63,64,65,66,67,68,69,70,71,72,73,74,75,76,77,78,80,81,82,83,85,86,89,91,37,38,39,40,41,42,43,44,45,46,47,48,49,50,51,52,53,54,55,56,57,58,59,60,61,63,64,65,66,67,68,69,70,72,73,75,76,78,79,80,82,91,38,39,40,41,42,43,44,45,46,47,48,49,50,51,52,53,54,55,56,57,58,59,60,61,62,63,64,65,66,67,68,69,70,71,72,73,74,75,76,77,78,79,80,81,82,83,84,85,86,87,88,89,90,39,40,41,42,43,44,45,46,47,48,49,50,51,52,53,54,55,56,57,59,60,61,62,63,64,65,66,67,68,69,70,71,72,73,74,75,76,77,78,79,80,81,82,83,84,86,87,89,91,40,41,42,43,44,45,46,47,48,49,50,51,52,53,54,55,56,57,58,59,60,61,62,63,64,65,67,68,69,70,71,72,73,74,75,76,77,78,79,80,81,82,83,84,85,86,89,91,41,42,44,45,46,47,48,49,50,51,52,53,54,55,56,57,58,59,60,61,62,63,64,65,66,67,68,69,70,71,72,73,74,75,76,77,78,80,81,82,83,85,86,89,91,42,43,44,45,46,47,48,49,50,51,52,53,54,55,56,57,58,59,60,61,62,63,64,65,66,67,68,69,70,71,72,73,74,75,76,77,78,79,80,81,82,83,85,86,89,91,43,44,45,46,47,48,49,50,51,52,53,54,55,56,57,58,59,60,61,62,63,64,65,66,67,68,69,70,71,72,73,75,76,77,78,79,80,82,83,84,85,87,88,90,91,44,45,46,47,48,49,50,51,52,53,54,55,56,57,58,59,60,61,62,63,64,65,66,67,68,69,70,71,72,73,74,75,76,77,78,80,81,82,83,85,86,89,91,45,46,47,48,49,50,51,52,53,55,56,57,58,59,60,61,62,64,65,66,67,68,69,70,72,73,74,75,76,78,79,80,82,83,91,46,47,48,49,50,51,52,53,54,55,56,57,58,59,60,61,62,63,64,65,66,67,68,69,70,71,72,73,74,75,76,77,78,79,81,82,83,84,85,86,89,91,47,48,49,50,51,52,54,55,56,57,58,59,60,61,62,63,64,65,66,67,68,69,70,71,72,73,74,75,76,77,78,79,80,81,83,84,85,86,87,88,89,91,48,49,50,51,52,53,54,55,56,57,58,59,60,61,62,63,64,65,66,67,68,69,70,71,72,74,75,76,77,78,79,80,81,82,83,84,85,86,87,91,49,50,51,52,53,54,55,56,57,58,59,60,61,62,63,64,65,66,67,68,69,70,71,72,73,74,75,76,77,78,79,80,81,82,83,84,85,86,87,88,89,90,50,51,53,54,55,56,57,58,59,60,61,62,64,65,66,68,69,70,72,73,74,75,80,83,91,51,52,53,54,55,56,57,59,60,62,63,64,65,66,68,69,70,71,72,73,74,75,77,78,80,81,83,86,89,91,52,53,54,55,56,57,58,59,60,61,62,63,64,65,66,67,68,69,70,71,72,73,74,75,76,77,79,80,82,83,84,87,91,53,54,55,56,57,58,59,60,61,62,63,64,65,66,68,69,70,71,72,73,74,75,77,78,80,81,83,85,86,89,91,54,55,56,57,58,59,60,61,62,63,64,65,66,67,68,69,70,71,72,73,74,75,76,77,78,79,80,81,83,84,85,86,87,88,89,91,55,56,57,58,59,60,61,62,64,65,66,67,68,69,70,72,73,74,75,76,78,79,80,82,83,91,56,57,59,60,61,62,63,64,65,66,67,68,69,70,71,72,73,74,75,76,77,78,79,80,81,82,83,84,86,87,89,91,57,58,59,60,61,62,63,64,65,66,67,68,69,71,73,74,75,76,77,78,79,80,81,82,83,84,85,86,87,88,90,91,58,59,60,61,62,63,64,65,66,67,68,69,70,71,72,73,74,75,76,77,78,79,80,81,83,84,85,86,87,88,89,91,59,60,61,62,63,64,65,66,67,68,69,70,71,72,73,74,75,76,77,78,79,80,81,82,83,84,86,87,89,91,60,61,62,63,64,65,66,67,68,69,70,71,72,73,74,76,77,78,79,80,81,82,84,85,87,88,90,91,61,62,63,64,65,66,67,68,69,70,71,72,73,74,75,76,77,79,80,82,83,84,87,91,62,63,64,65,66,68,69,70,71,72,73,74,75,77,78,80,81,83,85,86,89,91,63,64,65,66,67,68,69,70,72,73,74,75,76,78,79,80,82,83,91,64,65,66,67,68,69,70,72,73,74,75,76,78,79,80,82,83,91,65,66,67,69,70,71,72,73,74,75,76,77,78,80,81,82,83,85,86,89,91,66,67,68,70,71,73,74,75,76,77,78,79,80,81,82,83,84,85,86,87,88,90,67,68,69,70,71,72,73,74,75,76,77,78,79,80,81,82,83,84,85,86,89,91,68,69,70,71,72,73,74,75,77,78,80,81,83,85,86,89,91,69,70,71,72,73,74,75,76,77,78,80,81,82,83,85,86,89,91,70,71,72,73,74,75,76,77,78,79,80,81,82,83,84,85,86,87,88,89,90,71,73,74,75,76,77,78,79,80,81,82,83,84,85,86,87,88,90,91,72,73,74,75,76,78,79,80,82,83,91,73,74,75,76,77,78,79,80,81,82,83,84,85,86,87,88,90,91,74,75,76,77,78,79,80,81,82,83,84,85,86,87,91,75,76,77,78,79,80,82,83,84,85,87,88,90,91,76,77,78,79,80,81,82,84,85,87,88,90,91,77,78,80,81,83,85,86,89,91,78,79,80,82,83,91,79,80,82,83,84,87,91,80,81,82,83,85,86,89,91,81,82,83,84,85,86,89,91,82,83,84,85,87,88,90,91,83,84,85,86,87,88,89,91,84,85,87,88,90,91,85,86,89,91,86,87,89,91,87,88,90,91,89,91,89,91,90,91,91];

USEFUL_RES = [{},
	{1,2,3,4,5,6},
	{1,2,3,4,5,6},
	{1,2,3,4,5,6},
	{1,2,3,5,6},
	{1,2,3,4,5,6},
	{3,5,6},
	{1,2,3,4,5,6},
	{1,2,3,5,6},
	{1,2,3,4,5,6},
	{1,2,3,4,5,6},
	{1,2,3,4,5,6},
	{1,2,3,6},
	{1,2,3,4,5,6},
	{1,2,3,5,6},
	{1,2,3,5,6},
	{1,2,3,5},
	{1,2,3,5,6},
	{3,4,5,6},
	{1,2,3,6},
	{1,2,3,4,5},
	{1,2,3,4},
	{1,2,3,4,5,6},
	{1,2,3,4,5},
	{1,2,5,6},
	{1,2,3,4,5,6},
	{4},
	{1,2,3,4,5,6},
	{1,2,3,5,6},
	{1,2,3,4,5,6},
	{1,2,3,4},
	{1,2,3,5,6},
	{1,2,3,4,5,6},
	{1,2,3,5,6},
	{1,2,3,4},
	{1,2,3,4,5,6},
	{1,2,3,4,5,6},
	{1,2,3,4,6},
	{1,2,3,5,6},
	{1,2,3,4,5,6},
	{1,2,3,5,6},
	{1,2,3,4,5,6},
	{1,3,5,6},
	{1,2,3,4,6},
	{1,2,3,4,5,6},
	{1,2,3},
	{1,2,3,4,5,6},
	{1,3,4},
	{1,2,3,4,5,6},
	{1,2,3,5,6},
	{1,2,3,4,5,6},
	{1,2,3,4},
	{1,2,3,4,5,6},
	{2},
	{1,2,3,4,5},
	{1,2,3,4,5,6},
	{1,2,3,4,6},
	{1,2,3},
	{1,2,3,4,5,6},
	{1,2,3,4,6},
	{1,2,3,4,5,6},
	{1,2,3,5,6},
	{1,2,3,5,6},
	{1,2,3,4,5},
	{1,2,3,4,5,6},
	{1,2,3,6},
	{1,2,3,4,5,6},
	{1,2,3},
	{1,2,3,4,5,6},
	{1,2,3,5},
	{1,2,3,5,6},
	{1,2,3,4,5,6},
	{1,2,3,4,5,6},
	{1,2,3,4,5},
	{1,2,3,4,5,6},
	{1,2,5,6},
	{1,2,3,6},
	{1,2,3,4,5,6},
	{1,2,3,4,5},
	{1,2,3},
	{3,5,6},
	{1,2,4,5,6},
	{1,2,3,4,5,6},
	{1,2,3,4,5,6},
	{1,2,3,4,5,6},
	{1,2,3,4,5,6},
	{1,2,3,4,5,6},
	{1,2,3,4,6},
	{1,2,5,6},
	{1,2,3,6},
	{1,2,3,6},
	{}];

POTENTIAL_ACT = [{2,3,4,5,6,8,9,10,11,12,13,14,15,16,17,18,20,21,22,23,24,25,26,28,29,30,31,32,33,34,35,36,37,38,39,40,41,42,43,44,45,46,47,48,49,50,51,52,53,55,56,57,58,59,60,61,62,63,64,65,66,67,68,69,70,71,72,73,74,75,76,77,78,79,80,82,83,84,85,86,87,88,89,90,91},
	{2,3,4,5,6,8,9,10,11,12,13,14,15,16,17,18,20,21,22,23,24,25,26,28,29,30,31,32,33,34,35,36,37,38,39,40,41,42,44,45,46,47,49,50,51,52,53,54,55,56,57,58,59,60,61,62,63,64,65,66,67,68,69,70,71,72,73,74,75,76,77,78,79,80,82,83,84,85,86,87,88,89,90,91},
	{2,3,4,5,6,7,8,9,10,11,12,13,14,15,16,17,18,19,20,21,22,23,24,26,28,29,30,31,32,33,34,35,36,37,38,39,40,41,42,43,44,45,46,47,48,49,50,51,52,53,55,56,57,58,59,60,61,62,63,64,65,66,67,68,69,70,71,72,73,74,75,77,78,79,80,81,83,84,85,86,87,88,90,91},
	{2,3,4,6,8,10,11,12,14,19,21,22,23,24,26,27,28,30,31,33,35,36,37,38,40,42,44,45,47,48,49,51,52,53,55,56,57,59,60,61,64,65,67,69,72,73,74,75,78,79,82,83,84,85,86,87,88},
	{2,3,4,5,6,7,8,9,10,11,12,14,15,16,17,18,19,21,23,24,25,26,28,29,30,32,33,34,36,37,39,40,41,42,43,45,47,49,50,51,53,55,56,59,61,62,63,64,65,67,69,70,71,72,73,74,75,76,78,79,81,82,83,84,85,86,87,89},
	{2,3,4,5,6,7,8,9,10,11,12,13,14,15,16,18,19,20,23,25,26,28,29,30,32,33,34,36,37,38,39,40,41,42,43,44,45,47,49,50,51,53,56,57,59,60,61,62,63,65,66,67,69,71,72,73,75,76,77,78,81,82,83,84,85,86,87,88,89,90,91}];
